NAME: grubhub-04-4
TYPE: TSP
COMMENT: size=4 instance=4
DIMENSION: 10
EDGE_WEIGHT_TYPE: EXPLICIT
EDGE_WEIGHT_FORMAT : LOWER_DIAG_ROW
EDGE_WEIGHT_SECTION
0
0 0
1616 0 0
929 0 887 0
859 0 921 355 0
1568 0 148 780 761 0
1281 0 630 858 1159 693 0
1262 0 822 779 1080 761 478 0
897 0 1166 662 462 1120 1435 1237 0
1476 0 702 640 683 721 1168 1044 641 0
NODE_COORD_SECTION
+0 0 1000
-0 0 1000
+1 964 472
-1 553 557
+2 513 704
-2 891 527
+3 836 109
-3 756 44
+4 476 929
-4 893 918
PRECEDENCE_SECTION
+0 -0
+1 -1
+2 -2
+3 -3
+4 -4
EOF
